1 2  2009
1 3  2009
1 4  2009
1 5  2009
1 6  2009
1 7  2009
1 8  2009
1 9  2009
1 10  2009
1 11  2009
1 12  2009
1 13  2009
1 14  2009
1 15  2009
1 16  2009
17 3  2009
17 4  2009
17 16  2009
17 9  2009
17 18  2009
17 11  2009
17 19  2009
17 10  2009
17 13  2009
17 14  2009
17 15  2009
20 21  2009
20 5  2009
20 22  2009
20 8  2009
20 9  2009
20 23  2009
20 11  2009
20 24  2009
20 12  2009
20 25  2009
20 26  2009
20 15  2009
16 3  2009
16 4  2009
16 5  2009
16 6  2009
16 7  2009
16 2  2009
16 9  2009
16 10  2009
16 11  2009
16 8  2009
16 18  2009
16 13  2009
16 14  2009
16 19  2009
16 15  2009
22 21  2009
22 8  2009
22 9  2009
22 23  2009
22 11  2009
22 24  2009
22 12  2009
22 13  2009
22 14  2009
22 26  2009
22 25  2009
22 10  2009
9 23  2009
9 11  2009
9 24  2009
9 12  2009
9 26  2009
9 2  2009
9 3  2009
9 7  2009
9 10  2009
9 15  2009
9 21  2009
9 19  2009
9 13  2009
9 14  2009
9 4  2009
9 5  2009
9 18  2009
9 25  2009
23 21  2009
23 8  2009
23 11  2009
23 24  2009
23 12  2009
23 13  2009
23 14  2009
23 26  2009
23 25  2009
23 5  2009
23 15  2009
11 15  2009
11 24  2009
11 26  2009
11 2  2009
11 3  2009
11 10  2009
11 21  2009
11 8  2009
11 19  2009
11 13  2009
11 14  2009
11 4  2009
11 5  2009
11 18  2009
11 25  2009
24 10  2009
24 21  2009
24 12  2009
24 25  2009
24 26  2009
24 14  2009
24 18  2009
24 8  2009
12 8  2009
12 15  2009
12 21  2009
12 10  2009
12 25  2009
12 26  2009
26 21  2009
26 13  2009
26 14  2009
26 25  2009
26 15  2009
27 28  2009
27 29  2009
27 30  2009
27 31  2009
2 4  2009
2 5  2009
2 6  2009
2 8  2009
2 10  2009
2 19  2009
2 18  2009
2 13  2009
2 14  2009
3 4  2009
3 6  2009
3 8  2009
3 18  2009
3 19  2009
3 10  2009
3 13  2009
3 14  2009
3 7  2009
3 15  2009
31 28  2009
31 29  2009
31 30  2009
10 4  2009
10 5  2009
10 18  2009
10 8  2009
10 15  2009
10 7  2009
10 19  2009
10 6  2009
15 4  2009
15 21  2009
15 13  2009
15 14  2009
15 19  2009
15 18  2009
15 5  2009
15 8  2009
21 8  2009
21 25  2009
21 14  2009
21 5  2009
8 25  2009
8 7  2009
8 19  2009
8 4  2009
8 18  2009
8 6  2009
19 4  2009
19 5  2009
19 7  2009
19 18  2009
19 13  2009
19 14  2009
19 6  2009
29 28  2009
29 6  2009
29 30  2009
13 4  2009
13 5  2009
13 18  2009
13 25  2009
13 14  2009
13 7  2009
13 6  2009
14 7  2009
14 18  2009
14 25  2009
14 6  2009
28 30  2009
4 5  2009
4 6  2009
4 18  2009
4 7  2009
5 6  2009
5 18  2009
7 6  2009
6 18  2009
18 25  2009
1 32  2010
1 33  2010
1 15  2010
1 4  2010
1 34  2010
35 36  2010
35 37  2010
35 27  2010
22 38  2010
22 9  2010
22 23  2010
22 11  2010
22 24  2010
22 12  2010
22 39  2010
22 25  2010
22 26  2010
22 37  2010
22 40  2010
22 41  2010
9 17  2010
9 2  2010
9 10  2010
9 41  2010
9 11  2010
9 24  2010
9 12  2010
9 39  2010
9 25  2010
9 26  2010
9 37  2010
9 40  2010
9 23  2010
10 32  2010
10 17  2010
10 15  2010
10 24  2010
10 26  2010
10 2  2010
10 42  2010
10 31  2010
10 33  2010
10 41  2010
10 43  2010
10 44  2010
10 13  2010
10 14  2010
10 37  2010
10 45  2010
10 34  2010
10 4  2010
10 46  2010
10 47  2010
10 36  2010
10 25  2010
11 38  2010
11 2  2010
11 4  2010
11 5  2010
11 24  2010
11 12  2010
11 13  2010
11 25  2010
11 26  2010
11 33  2010
11 37  2010
11 14  2010
24 38  2010
24 17  2010
24 48  2010
24 5  2010
24 41  2010
24 40  2010
24 13  2010
24 25  2010
24 39  2010
24 12  2010
24 37  2010
24 23  2010
24 32  2010
24 26  2010
24 15  2010
12 32  2010
12 48  2010
12 5  2010
12 46  2010
12 36  2010
12 40  2010
12 39  2010
12 25  2010
12 26  2010
12 37  2010
12 34  2010
12 41  2010
12 15  2010
12 23  2010
26 32  2010
26 23  2010
26 49  2010
26 31  2010
26 50  2010
26 41  2010
26 39  2010
26 43  2010
26 15  2010
26 13  2010
26 37  2010
26 45  2010
26 4  2010
26 5  2010
26 47  2010
26 51  2010
26 36  2010
26 25  2010
27 32  2010
27 4  2010
27 49  2010
27 31  2010
27 2  2010
27 50  2010
27 36  2010
27 51  2010
27 13  2010
27 52  2010
27 43  2010
27 37  2010
27 45  2010
27 41  2010
27 47  2010
38 25  2010
38 13  2010
2 17  2010
2 40  2010
2 48  2010
2 31  2010
2 33  2010
2 41  2010
2 43  2010
2 15  2010
2 44  2010
2 13  2010
2 14  2010
2 37  2010
2 34  2010
2 4  2010
2 46  2010
2 47  2010
2 36  2010
2 25  2010
2 50  2010
48 4  2010
48 46  2010
48 33  2010
48 36  2010
48 15  2010
48 25  2010
48 34  2010
48 41  2010
49 32  2010
49 17  2010
49 4  2010
49 5  2010
49 31  2010
49 47  2010
49 50  2010
49 13  2010
49 52  2010
49 45  2010
49 43  2010
31 4  2010
31 44  2010
31 51  2010
31 50  2010
31 36  2010
31 15  2010
31 13  2010
31 52  2010
31 37  2010
31 45  2010
31 41  2010
31 43  2010
31 47  2010
33 4  2010
33 46  2010
33 44  2010
33 36  2010
33 13  2010
33 25  2010
33 37  2010
33 14  2010
33 34  2010
33 41  2010
33 32  2010
33 15  2010
41 32  2010
41 17  2010
41 40  2010
41 15  2010
41 39  2010
41 43  2010
41 23  2010
41 42  2010
41 14  2010
41 13  2010
41 37  2010
41 34  2010
41 4  2010
41 46  2010
41 47  2010
41 36  2010
41 25  2010
41 50  2010
40 17  2010
40 13  2010
40 25  2010
39 25  2010
39 23  2010
52 51  2010
52 50  2010
52 36  2010
52 47  2010
52 43  2010
52 37  2010
52 45  2010
43 4  2010
43 51  2010
43 50  2010
43 47  2010
43 37  2010
43 45  2010
43 36  2010
23 32  2010
23 15  2010
23 25  2010
23 37  2010
32 4  2010
32 5  2010
32 47  2010
32 15  2010
32 13  2010
32 25  2010
32 37  2010
32 14  2010
15 17  2010
15 44  2010
15 13  2010
15 14  2010
15 37  2010
15 34  2010
15 4  2010
15 47  2010
15 36  2010
15 25  2010
44 17  2010
44 4  2010
44 13  2010
44 14  2010
44 37  2010
42 17  2010
42 37  2010
17 4  2010
17 47  2010
17 13  2010
17 14  2010
17 50  2010
17 37  2010
17 36  2010
13 14  2010
13 37  2010
13 45  2010
13 4  2010
13 5  2010
13 47  2010
13 25  2010
13 50  2010
37 45  2010
37 14  2010
37 4  2010
37 46  2010
37 47  2010
37 36  2010
37 25  2010
45 51  2010
45 50  2010
45 36  2010
45 47  2010
14 4  2010
14 25  2010
34 4  2010
34 46  2010
34 36  2010
4 5  2010
4 46  2010
4 47  2010
4 36  2010
4 25  2010
5 25  2010
46 36  2010
47 51  2010
47 50  2010
47 25  2010
47 36  2010
51 50  2010
51 36  2010
36 50  2010
